c File: flat150_3_0.col
c
c SOURCE: Joseph Culberson (joe@cs.ualberta.ca)
c DESCRIPTION: Quasi-random coloring problem
c              generated with flatness = 0
c                             probability = 0.048
c                             known coloring = 3
c                             random seed = 1018
c              Creation Date:  Wed Feb 24 10:37:18 1999
c Maximum degree = 8 Minimum degree = 1
c COLOR VERIFICATION: Using the permuted order
c under simple greedy yields the specified
c coloring number
c Color = 3 specified partitions = 3
c p edge 150 360
c cnf created by edge2cnf
p cnf 450 1680
-1 -2 0
-1 -3 0
-2 -3 0
1 2 3 0
-4 -5 0
-4 -6 0
-5 -6 0
4 5 6 0
-7 -8 0
-7 -9 0
-8 -9 0
7 8 9 0
-10 -11 0
-10 -12 0
-11 -12 0
10 11 12 0
-13 -14 0
-13 -15 0
-14 -15 0
13 14 15 0
-16 -17 0
-16 -18 0
-17 -18 0
16 17 18 0
-19 -20 0
-19 -21 0
-20 -21 0
19 20 21 0
-22 -23 0
-22 -24 0
-23 -24 0
22 23 24 0
-25 -26 0
-25 -27 0
-26 -27 0
25 26 27 0
-28 -29 0
-28 -30 0
-29 -30 0
28 29 30 0
-31 -32 0
-31 -33 0
-32 -33 0
31 32 33 0
-34 -35 0
-34 -36 0
-35 -36 0
34 35 36 0
-37 -38 0
-37 -39 0
-38 -39 0
37 38 39 0
-40 -41 0
-40 -42 0
-41 -42 0
40 41 42 0
-43 -44 0
-43 -45 0
-44 -45 0
43 44 45 0
-46 -47 0
-46 -48 0
-47 -48 0
46 47 48 0
-49 -50 0
-49 -51 0
-50 -51 0
49 50 51 0
-52 -53 0
-52 -54 0
-53 -54 0
52 53 54 0
-55 -56 0
-55 -57 0
-56 -57 0
55 56 57 0
-58 -59 0
-58 -60 0
-59 -60 0
58 59 60 0
-61 -62 0
-61 -63 0
-62 -63 0
61 62 63 0
-64 -65 0
-64 -66 0
-65 -66 0
64 65 66 0
-67 -68 0
-67 -69 0
-68 -69 0
67 68 69 0
-70 -71 0
-70 -72 0
-71 -72 0
70 71 72 0
-73 -74 0
-73 -75 0
-74 -75 0
73 74 75 0
-76 -77 0
-76 -78 0
-77 -78 0
76 77 78 0
-79 -80 0
-79 -81 0
-80 -81 0
79 80 81 0
-82 -83 0
-82 -84 0
-83 -84 0
82 83 84 0
-85 -86 0
-85 -87 0
-86 -87 0
85 86 87 0
-88 -89 0
-88 -90 0
-89 -90 0
88 89 90 0
-91 -92 0
-91 -93 0
-92 -93 0
91 92 93 0
-94 -95 0
-94 -96 0
-95 -96 0
94 95 96 0
-97 -98 0
-97 -99 0
-98 -99 0
97 98 99 0
-100 -101 0
-100 -102 0
-101 -102 0
100 101 102 0
-103 -104 0
-103 -105 0
-104 -105 0
103 104 105 0
-106 -107 0
-106 -108 0
-107 -108 0
106 107 108 0
-109 -110 0
-109 -111 0
-110 -111 0
109 110 111 0
-112 -113 0
-112 -114 0
-113 -114 0
112 113 114 0
-115 -116 0
-115 -117 0
-116 -117 0
115 116 117 0
-118 -119 0
-118 -120 0
-119 -120 0
118 119 120 0
-121 -122 0
-121 -123 0
-122 -123 0
121 122 123 0
-124 -125 0
-124 -126 0
-125 -126 0
124 125 126 0
-127 -128 0
-127 -129 0
-128 -129 0
127 128 129 0
-130 -131 0
-130 -132 0
-131 -132 0
130 131 132 0
-133 -134 0
-133 -135 0
-134 -135 0
133 134 135 0
-136 -137 0
-136 -138 0
-137 -138 0
136 137 138 0
-139 -140 0
-139 -141 0
-140 -141 0
139 140 141 0
-142 -143 0
-142 -144 0
-143 -144 0
142 143 144 0
-145 -146 0
-145 -147 0
-146 -147 0
145 146 147 0
-148 -149 0
-148 -150 0
-149 -150 0
148 149 150 0
-151 -152 0
-151 -153 0
-152 -153 0
151 152 153 0
-154 -155 0
-154 -156 0
-155 -156 0
154 155 156 0
-157 -158 0
-157 -159 0
-158 -159 0
157 158 159 0
-160 -161 0
-160 -162 0
-161 -162 0
160 161 162 0
-163 -164 0
-163 -165 0
-164 -165 0
163 164 165 0
-166 -167 0
-166 -168 0
-167 -168 0
166 167 168 0
-169 -170 0
-169 -171 0
-170 -171 0
169 170 171 0
-172 -173 0
-172 -174 0
-173 -174 0
172 173 174 0
-175 -176 0
-175 -177 0
-176 -177 0
175 176 177 0
-178 -179 0
-178 -180 0
-179 -180 0
178 179 180 0
-181 -182 0
-181 -183 0
-182 -183 0
181 182 183 0
-184 -185 0
-184 -186 0
-185 -186 0
184 185 186 0
-187 -188 0
-187 -189 0
-188 -189 0
187 188 189 0
-190 -191 0
-190 -192 0
-191 -192 0
190 191 192 0
-193 -194 0
-193 -195 0
-194 -195 0
193 194 195 0
-196 -197 0
-196 -198 0
-197 -198 0
196 197 198 0
-199 -200 0
-199 -201 0
-200 -201 0
199 200 201 0
-202 -203 0
-202 -204 0
-203 -204 0
202 203 204 0
-205 -206 0
-205 -207 0
-206 -207 0
205 206 207 0
-208 -209 0
-208 -210 0
-209 -210 0
208 209 210 0
-211 -212 0
-211 -213 0
-212 -213 0
211 212 213 0
-214 -215 0
-214 -216 0
-215 -216 0
214 215 216 0
-217 -218 0
-217 -219 0
-218 -219 0
217 218 219 0
-220 -221 0
-220 -222 0
-221 -222 0
220 221 222 0
-223 -224 0
-223 -225 0
-224 -225 0
223 224 225 0
-226 -227 0
-226 -228 0
-227 -228 0
226 227 228 0
-229 -230 0
-229 -231 0
-230 -231 0
229 230 231 0
-232 -233 0
-232 -234 0
-233 -234 0
232 233 234 0
-235 -236 0
-235 -237 0
-236 -237 0
235 236 237 0
-238 -239 0
-238 -240 0
-239 -240 0
238 239 240 0
-241 -242 0
-241 -243 0
-242 -243 0
241 242 243 0
-244 -245 0
-244 -246 0
-245 -246 0
244 245 246 0
-247 -248 0
-247 -249 0
-248 -249 0
247 248 249 0
-250 -251 0
-250 -252 0
-251 -252 0
250 251 252 0
-253 -254 0
-253 -255 0
-254 -255 0
253 254 255 0
-256 -257 0
-256 -258 0
-257 -258 0
256 257 258 0
-259 -260 0
-259 -261 0
-260 -261 0
259 260 261 0
-262 -263 0
-262 -264 0
-263 -264 0
262 263 264 0
-265 -266 0
-265 -267 0
-266 -267 0
265 266 267 0
-268 -269 0
-268 -270 0
-269 -270 0
268 269 270 0
-271 -272 0
-271 -273 0
-272 -273 0
271 272 273 0
-274 -275 0
-274 -276 0
-275 -276 0
274 275 276 0
-277 -278 0
-277 -279 0
-278 -279 0
277 278 279 0
-280 -281 0
-280 -282 0
-281 -282 0
280 281 282 0
-283 -284 0
-283 -285 0
-284 -285 0
283 284 285 0
-286 -287 0
-286 -288 0
-287 -288 0
286 287 288 0
-289 -290 0
-289 -291 0
-290 -291 0
289 290 291 0
-292 -293 0
-292 -294 0
-293 -294 0
292 293 294 0
-295 -296 0
-295 -297 0
-296 -297 0
295 296 297 0
-298 -299 0
-298 -300 0
-299 -300 0
298 299 300 0
-301 -302 0
-301 -303 0
-302 -303 0
301 302 303 0
-304 -305 0
-304 -306 0
-305 -306 0
304 305 306 0
-307 -308 0
-307 -309 0
-308 -309 0
307 308 309 0
-310 -311 0
-310 -312 0
-311 -312 0
310 311 312 0
-313 -314 0
-313 -315 0
-314 -315 0
313 314 315 0
-316 -317 0
-316 -318 0
-317 -318 0
316 317 318 0
-319 -320 0
-319 -321 0
-320 -321 0
319 320 321 0
-322 -323 0
-322 -324 0
-323 -324 0
322 323 324 0
-325 -326 0
-325 -327 0
-326 -327 0
325 326 327 0
-328 -329 0
-328 -330 0
-329 -330 0
328 329 330 0
-331 -332 0
-331 -333 0
-332 -333 0
331 332 333 0
-334 -335 0
-334 -336 0
-335 -336 0
334 335 336 0
-337 -338 0
-337 -339 0
-338 -339 0
337 338 339 0
-340 -341 0
-340 -342 0
-341 -342 0
340 341 342 0
-343 -344 0
-343 -345 0
-344 -345 0
343 344 345 0
-346 -347 0
-346 -348 0
-347 -348 0
346 347 348 0
-349 -350 0
-349 -351 0
-350 -351 0
349 350 351 0
-352 -353 0
-352 -354 0
-353 -354 0
352 353 354 0
-355 -356 0
-355 -357 0
-356 -357 0
355 356 357 0
-358 -359 0
-358 -360 0
-359 -360 0
358 359 360 0
-361 -362 0
-361 -363 0
-362 -363 0
361 362 363 0
-364 -365 0
-364 -366 0
-365 -366 0
364 365 366 0
-367 -368 0
-367 -369 0
-368 -369 0
367 368 369 0
-370 -371 0
-370 -372 0
-371 -372 0
370 371 372 0
-373 -374 0
-373 -375 0
-374 -375 0
373 374 375 0
-376 -377 0
-376 -378 0
-377 -378 0
376 377 378 0
-379 -380 0
-379 -381 0
-380 -381 0
379 380 381 0
-382 -383 0
-382 -384 0
-383 -384 0
382 383 384 0
-385 -386 0
-385 -387 0
-386 -387 0
385 386 387 0
-388 -389 0
-388 -390 0
-389 -390 0
388 389 390 0
-391 -392 0
-391 -393 0
-392 -393 0
391 392 393 0
-394 -395 0
-394 -396 0
-395 -396 0
394 395 396 0
-397 -398 0
-397 -399 0
-398 -399 0
397 398 399 0
-400 -401 0
-400 -402 0
-401 -402 0
400 401 402 0
-403 -404 0
-403 -405 0
-404 -405 0
403 404 405 0
-406 -407 0
-406 -408 0
-407 -408 0
406 407 408 0
-409 -410 0
-409 -411 0
-410 -411 0
409 410 411 0
-412 -413 0
-412 -414 0
-413 -414 0
412 413 414 0
-415 -416 0
-415 -417 0
-416 -417 0
415 416 417 0
-418 -419 0
-418 -420 0
-419 -420 0
418 419 420 0
-421 -422 0
-421 -423 0
-422 -423 0
421 422 423 0
-424 -425 0
-424 -426 0
-425 -426 0
424 425 426 0
-427 -428 0
-427 -429 0
-428 -429 0
427 428 429 0
-430 -431 0
-430 -432 0
-431 -432 0
430 431 432 0
-433 -434 0
-433 -435 0
-434 -435 0
433 434 435 0
-436 -437 0
-436 -438 0
-437 -438 0
436 437 438 0
-439 -440 0
-439 -441 0
-440 -441 0
439 440 441 0
-442 -443 0
-442 -444 0
-443 -444 0
442 443 444 0
-445 -446 0
-445 -447 0
-446 -447 0
445 446 447 0
-448 -449 0
-448 -450 0
-449 -450 0
448 449 450 0
-76 -1 0
-77 -2 0
-78 -3 0
-214 -1 0
-215 -2 0
-216 -3 0
-295 -1 0
-296 -2 0
-297 -3 0
-325 -1 0
-326 -2 0
-327 -3 0
-406 -1 0
-407 -2 0
-408 -3 0
-175 -4 0
-176 -5 0
-177 -6 0
-382 -4 0
-383 -5 0
-384 -6 0
-418 -4 0
-419 -5 0
-420 -6 0
-436 -4 0
-437 -5 0
-438 -6 0
-106 -7 0
-107 -8 0
-108 -9 0
-187 -7 0
-188 -8 0
-189 -9 0
-235 -7 0
-236 -8 0
-237 -9 0
-358 -7 0
-359 -8 0
-360 -9 0
-406 -7 0
-407 -8 0
-408 -9 0
-109 -10 0
-110 -11 0
-111 -12 0
-136 -10 0
-137 -11 0
-138 -12 0
-166 -10 0
-167 -11 0
-168 -12 0
-298 -10 0
-299 -11 0
-300 -12 0
-37 -13 0
-38 -14 0
-39 -15 0
-229 -13 0
-230 -14 0
-231 -15 0
-235 -13 0
-236 -14 0
-237 -15 0
-292 -13 0
-293 -14 0
-294 -15 0
-373 -13 0
-374 -14 0
-375 -15 0
-403 -13 0
-404 -14 0
-405 -15 0
-178 -16 0
-179 -17 0
-180 -18 0
-253 -16 0
-254 -17 0
-255 -18 0
-283 -16 0
-284 -17 0
-285 -18 0
-316 -16 0
-317 -17 0
-318 -18 0
-355 -16 0
-356 -17 0
-357 -18 0
-76 -19 0
-77 -20 0
-78 -21 0
-100 -19 0
-101 -20 0
-102 -21 0
-121 -19 0
-122 -20 0
-123 -21 0
-187 -19 0
-188 -20 0
-189 -21 0
-325 -19 0
-326 -20 0
-327 -21 0
-337 -19 0
-338 -20 0
-339 -21 0
-349 -19 0
-350 -20 0
-351 -21 0
-70 -22 0
-71 -23 0
-72 -24 0
-229 -22 0
-230 -23 0
-231 -24 0
-334 -22 0
-335 -23 0
-336 -24 0
-343 -22 0
-344 -23 0
-345 -24 0
-121 -25 0
-122 -26 0
-123 -27 0
-247 -25 0
-248 -26 0
-249 -27 0
-298 -25 0
-299 -26 0
-300 -27 0
-334 -25 0
-335 -26 0
-336 -27 0
-355 -25 0
-356 -26 0
-357 -27 0
-376 -25 0
-377 -26 0
-378 -27 0
-37 -28 0
-38 -29 0
-39 -30 0
-151 -28 0
-152 -29 0
-153 -30 0
-175 -28 0
-176 -29 0
-177 -30 0
-229 -28 0
-230 -29 0
-231 -30 0
-343 -28 0
-344 -29 0
-345 -30 0
-46 -31 0
-47 -32 0
-48 -33 0
-382 -31 0
-383 -32 0
-384 -33 0
-181 -34 0
-182 -35 0
-183 -36 0
-259 -34 0
-260 -35 0
-261 -36 0
-361 -34 0
-362 -35 0
-363 -36 0
-109 -37 0
-110 -38 0
-111 -39 0
-328 -37 0
-329 -38 0
-330 -39 0
-73 -40 0
-74 -41 0
-75 -42 0
-91 -43 0
-92 -44 0
-93 -45 0
-208 -43 0
-209 -44 0
-210 -45 0
-262 -43 0
-263 -44 0
-264 -45 0
-295 -43 0
-296 -44 0
-297 -45 0
-400 -43 0
-401 -44 0
-402 -45 0
-424 -43 0
-425 -44 0
-426 -45 0
-103 -46 0
-104 -47 0
-105 -48 0
-121 -46 0
-122 -47 0
-123 -48 0
-142 -46 0
-143 -47 0
-144 -48 0
-154 -46 0
-155 -47 0
-156 -48 0
-220 -46 0
-221 -47 0
-222 -48 0
-295 -46 0
-296 -47 0
-297 -48 0
-388 -46 0
-389 -47 0
-390 -48 0
-187 -49 0
-188 -50 0
-189 -51 0
-208 -49 0
-209 -50 0
-210 -51 0
-220 -49 0
-221 -50 0
-222 -51 0
-388 -49 0
-389 -50 0
-390 -51 0
-61 -52 0
-62 -53 0
-63 -54 0
-85 -52 0
-86 -53 0
-87 -54 0
-130 -52 0
-131 -53 0
-132 -54 0
-322 -52 0
-323 -53 0
-324 -54 0
-385 -52 0
-386 -53 0
-387 -54 0
-415 -52 0
-416 -53 0
-417 -54 0
-139 -55 0
-140 -56 0
-141 -57 0
-85 -58 0
-86 -59 0
-87 -60 0
-136 -58 0
-137 -59 0
-138 -60 0
-157 -58 0
-158 -59 0
-159 -60 0
-253 -58 0
-254 -59 0
-255 -60 0
-364 -58 0
-365 -59 0
-366 -60 0
-409 -58 0
-410 -59 0
-411 -60 0
-127 -61 0
-128 -62 0
-129 -63 0
-136 -61 0
-137 -62 0
-138 -63 0
-211 -61 0
-212 -62 0
-213 -63 0
-268 -61 0
-269 -62 0
-270 -63 0
-322 -61 0
-323 -62 0
-324 -63 0
-376 -61 0
-377 -62 0
-378 -63 0
-433 -61 0
-434 -62 0
-435 -63 0
-166 -64 0
-167 -65 0
-168 -66 0
-376 -64 0
-377 -65 0
-378 -66 0
-439 -64 0
-440 -65 0
-441 -66 0
-445 -64 0
-446 -65 0
-447 -66 0
-163 -67 0
-164 -68 0
-165 -69 0
-193 -67 0
-194 -68 0
-195 -69 0
-412 -67 0
-413 -68 0
-414 -69 0
-421 -67 0
-422 -68 0
-423 -69 0
-430 -67 0
-431 -68 0
-432 -69 0
-442 -67 0
-443 -68 0
-444 -69 0
-193 -70 0
-194 -71 0
-195 -72 0
-241 -70 0
-242 -71 0
-243 -72 0
-259 -70 0
-260 -71 0
-261 -72 0
-385 -70 0
-386 -71 0
-387 -72 0
-433 -70 0
-434 -71 0
-435 -72 0
-241 -73 0
-242 -74 0
-243 -75 0
-286 -73 0
-287 -74 0
-288 -75 0
-355 -73 0
-356 -74 0
-357 -75 0
-367 -73 0
-368 -74 0
-369 -75 0
-148 -76 0
-149 -77 0
-150 -78 0
-256 -76 0
-257 -77 0
-258 -78 0
-283 -76 0
-284 -77 0
-285 -78 0
-403 -76 0
-404 -77 0
-405 -78 0
-106 -79 0
-107 -80 0
-108 -81 0
-286 -79 0
-287 -80 0
-288 -81 0
-319 -79 0
-320 -80 0
-321 -81 0
-385 -79 0
-386 -80 0
-387 -81 0
-97 -82 0
-98 -83 0
-99 -84 0
-268 -82 0
-269 -83 0
-270 -84 0
-271 -82 0
-272 -83 0
-273 -84 0
-274 -82 0
-275 -83 0
-276 -84 0
-91 -85 0
-92 -86 0
-93 -87 0
-211 -88 0
-212 -89 0
-213 -90 0
-232 -88 0
-233 -89 0
-234 -90 0
-298 -88 0
-299 -89 0
-300 -90 0
-106 -91 0
-107 -92 0
-108 -93 0
-190 -91 0
-191 -92 0
-192 -93 0
-241 -91 0
-242 -92 0
-243 -93 0
-379 -91 0
-380 -92 0
-381 -93 0
-412 -91 0
-413 -92 0
-414 -93 0
-100 -94 0
-101 -95 0
-102 -96 0
-106 -94 0
-107 -95 0
-108 -96 0
-187 -94 0
-188 -95 0
-189 -96 0
-229 -94 0
-230 -95 0
-231 -96 0
-322 -94 0
-323 -95 0
-324 -96 0
-328 -94 0
-329 -95 0
-330 -96 0
-337 -94 0
-338 -95 0
-339 -96 0
-349 -94 0
-350 -95 0
-351 -96 0
-220 -97 0
-221 -98 0
-222 -99 0
-232 -97 0
-233 -98 0
-234 -99 0
-235 -97 0
-236 -98 0
-237 -99 0
-283 -97 0
-284 -98 0
-285 -99 0
-367 -97 0
-368 -98 0
-369 -99 0
-373 -97 0
-374 -98 0
-375 -99 0
-277 -100 0
-278 -101 0
-279 -102 0
-295 -100 0
-296 -101 0
-297 -102 0
-301 -100 0
-302 -101 0
-303 -102 0
-154 -103 0
-155 -104 0
-156 -105 0
-181 -103 0
-182 -104 0
-183 -105 0
-373 -103 0
-374 -104 0
-375 -105 0
-163 -106 0
-164 -107 0
-165 -108 0
-172 -106 0
-173 -107 0
-174 -108 0
-316 -106 0
-317 -107 0
-318 -108 0
-328 -106 0
-329 -107 0
-330 -108 0
-328 -109 0
-329 -110 0
-330 -111 0
-385 -109 0
-386 -110 0
-387 -111 0
-391 -109 0
-392 -110 0
-393 -111 0
-118 -112 0
-119 -113 0
-120 -114 0
-136 -112 0
-137 -113 0
-138 -114 0
-352 -112 0
-353 -113 0
-354 -114 0
-382 -112 0
-383 -113 0
-384 -114 0
-412 -112 0
-413 -113 0
-414 -114 0
-280 -115 0
-281 -116 0
-282 -117 0
-289 -115 0
-290 -116 0
-291 -117 0
-343 -115 0
-344 -116 0
-345 -117 0
-391 -115 0
-392 -116 0
-393 -117 0
-232 -118 0
-233 -119 0
-234 -120 0
-310 -118 0
-311 -119 0
-312 -120 0
-316 -118 0
-317 -119 0
-318 -120 0
-328 -118 0
-329 -119 0
-330 -120 0
-145 -121 0
-146 -122 0
-147 -123 0
-178 -121 0
-179 -122 0
-180 -123 0
-208 -124 0
-209 -125 0
-210 -126 0
-289 -124 0
-290 -125 0
-291 -126 0
-424 -124 0
-425 -125 0
-426 -126 0
-241 -127 0
-242 -128 0
-243 -129 0
-250 -127 0
-251 -128 0
-252 -129 0
-304 -127 0
-305 -128 0
-306 -129 0
-403 -127 0
-404 -128 0
-405 -129 0
-136 -130 0
-137 -131 0
-138 -132 0
-202 -130 0
-203 -131 0
-204 -132 0
-322 -133 0
-323 -134 0
-324 -135 0
-148 -136 0
-149 -137 0
-150 -138 0
-307 -136 0
-308 -137 0
-309 -138 0
-424 -136 0
-425 -137 0
-426 -138 0
-238 -139 0
-239 -140 0
-240 -141 0
-319 -139 0
-320 -140 0
-321 -141 0
-391 -139 0
-392 -140 0
-393 -141 0
-406 -139 0
-407 -140 0
-408 -141 0
-148 -142 0
-149 -143 0
-150 -144 0
-388 -142 0
-389 -143 0
-390 -144 0
-325 -145 0
-326 -146 0
-327 -147 0
-430 -145 0
-431 -146 0
-432 -147 0
-433 -145 0
-434 -146 0
-435 -147 0
-298 -148 0
-299 -149 0
-300 -150 0
-385 -148 0
-386 -149 0
-387 -150 0
-442 -148 0
-443 -149 0
-444 -150 0
-259 -151 0
-260 -152 0
-261 -153 0
-307 -151 0
-308 -152 0
-309 -153 0
-334 -151 0
-335 -152 0
-336 -153 0
-175 -154 0
-176 -155 0
-177 -156 0
-199 -154 0
-200 -155 0
-201 -156 0
-325 -154 0
-326 -155 0
-327 -156 0
-334 -157 0
-335 -158 0
-336 -159 0
-364 -157 0
-365 -158 0
-366 -159 0
-448 -157 0
-449 -158 0
-450 -159 0
-181 -160 0
-182 -161 0
-183 -162 0
-358 -160 0
-359 -161 0
-360 -162 0
-364 -160 0
-365 -161 0
-366 -162 0
-379 -160 0
-380 -161 0
-381 -162 0
-439 -160 0
-440 -161 0
-441 -162 0
-448 -160 0
-449 -161 0
-450 -162 0
-175 -163 0
-176 -164 0
-177 -165 0
-271 -163 0
-272 -164 0
-273 -165 0
-379 -163 0
-380 -164 0
-381 -165 0
-208 -166 0
-209 -167 0
-210 -168 0
-217 -166 0
-218 -167 0
-219 -168 0
-367 -166 0
-368 -167 0
-369 -168 0
-424 -166 0
-425 -167 0
-426 -168 0
-397 -169 0
-398 -170 0
-399 -171 0
-415 -169 0
-416 -170 0
-417 -171 0
-259 -172 0
-260 -173 0
-261 -174 0
-262 -172 0
-263 -173 0
-264 -174 0
-355 -172 0
-356 -173 0
-357 -174 0
-373 -172 0
-374 -173 0
-375 -174 0
-409 -172 0
-410 -173 0
-411 -174 0
-247 -175 0
-248 -176 0
-249 -177 0
-388 -175 0
-389 -176 0
-390 -177 0
-232 -178 0
-233 -179 0
-234 -180 0
-244 -178 0
-245 -179 0
-246 -180 0
-328 -178 0
-329 -179 0
-330 -180 0
-391 -178 0
-392 -179 0
-393 -180 0
-244 -181 0
-245 -182 0
-246 -183 0
-355 -181 0
-356 -182 0
-357 -183 0
-193 -184 0
-194 -185 0
-195 -186 0
-265 -184 0
-266 -185 0
-267 -186 0
-280 -184 0
-281 -185 0
-282 -186 0
-289 -184 0
-290 -185 0
-291 -186 0
-346 -184 0
-347 -185 0
-348 -186 0
-379 -187 0
-380 -188 0
-381 -189 0
-262 -190 0
-263 -191 0
-264 -192 0
-283 -190 0
-284 -191 0
-285 -192 0
-259 -193 0
-260 -194 0
-261 -195 0
-298 -193 0
-299 -194 0
-300 -195 0
-307 -193 0
-308 -194 0
-309 -195 0
-334 -193 0
-335 -194 0
-336 -195 0
-319 -196 0
-320 -197 0
-321 -198 0
-328 -196 0
-329 -197 0
-330 -198 0
-445 -196 0
-446 -197 0
-447 -198 0
-214 -199 0
-215 -200 0
-216 -201 0
-322 -199 0
-323 -200 0
-324 -201 0
-421 -199 0
-422 -200 0
-423 -201 0
-295 -202 0
-296 -203 0
-297 -204 0
-418 -202 0
-419 -203 0
-420 -204 0
-217 -205 0
-218 -206 0
-219 -207 0
-400 -205 0
-401 -206 0
-402 -207 0
-421 -205 0
-422 -206 0
-423 -207 0
-313 -208 0
-314 -209 0
-315 -210 0
-397 -208 0
-398 -209 0
-399 -210 0
-340 -211 0
-341 -212 0
-342 -213 0
-358 -211 0
-359 -212 0
-360 -213 0
-418 -211 0
-419 -212 0
-420 -213 0
-424 -211 0
-425 -212 0
-426 -213 0
-271 -214 0
-272 -215 0
-273 -216 0
-271 -217 0
-272 -218 0
-273 -219 0
-391 -217 0
-392 -218 0
-393 -219 0
-370 -220 0
-371 -221 0
-372 -222 0
-373 -220 0
-374 -221 0
-375 -222 0
-439 -220 0
-440 -221 0
-441 -222 0
-436 -223 0
-437 -224 0
-438 -225 0
-232 -226 0
-233 -227 0
-234 -228 0
-316 -226 0
-317 -227 0
-318 -228 0
-367 -226 0
-368 -227 0
-369 -228 0
-373 -226 0
-374 -227 0
-375 -228 0
-238 -229 0
-239 -230 0
-240 -231 0
-316 -229 0
-317 -230 0
-318 -231 0
-334 -229 0
-335 -230 0
-336 -231 0
-421 -229 0
-422 -230 0
-423 -231 0
-310 -232 0
-311 -233 0
-312 -234 0
-343 -232 0
-344 -233 0
-345 -234 0
-370 -232 0
-371 -233 0
-372 -234 0
-277 -235 0
-278 -236 0
-279 -237 0
-382 -235 0
-383 -236 0
-384 -237 0
-448 -235 0
-449 -236 0
-450 -237 0
-418 -238 0
-419 -239 0
-420 -240 0
-244 -241 0
-245 -242 0
-246 -243 0
-433 -241 0
-434 -242 0
-435 -243 0
-406 -244 0
-407 -245 0
-408 -246 0
-331 -247 0
-332 -248 0
-333 -249 0
-394 -247 0
-395 -248 0
-396 -249 0
-271 -250 0
-272 -251 0
-273 -252 0
-277 -250 0
-278 -251 0
-279 -252 0
-310 -250 0
-311 -251 0
-312 -252 0
-385 -250 0
-386 -251 0
-387 -252 0
-439 -250 0
-440 -251 0
-441 -252 0
-295 -253 0
-296 -254 0
-297 -255 0
-367 -253 0
-368 -254 0
-369 -255 0
-445 -253 0
-446 -254 0
-447 -255 0
-286 -256 0
-287 -257 0
-288 -258 0
-289 -256 0
-290 -257 0
-291 -258 0
-406 -256 0
-407 -257 0
-408 -258 0
-310 -259 0
-311 -260 0
-312 -261 0
-352 -259 0
-353 -260 0
-354 -261 0
-421 -262 0
-422 -263 0
-423 -264 0
-289 -265 0
-290 -266 0
-291 -267 0
-292 -265 0
-293 -266 0
-294 -267 0
-388 -265 0
-389 -266 0
-390 -267 0
-421 -265 0
-422 -266 0
-423 -267 0
-448 -265 0
-449 -266 0
-450 -267 0
-313 -268 0
-314 -269 0
-315 -270 0
-430 -268 0
-431 -269 0
-432 -270 0
-427 -277 0
-428 -278 0
-429 -279 0
-292 -280 0
-293 -281 0
-294 -282 0
-376 -280 0
-377 -281 0
-378 -282 0
-286 -283 0
-287 -284 0
-288 -285 0
-364 -283 0
-365 -284 0
-366 -285 0
-379 -283 0
-380 -284 0
-381 -285 0
-415 -283 0
-416 -284 0
-417 -285 0
-325 -286 0
-326 -287 0
-327 -288 0
-376 -286 0
-377 -287 0
-378 -288 0
-403 -286 0
-404 -287 0
-405 -288 0
-373 -289 0
-374 -290 0
-375 -291 0
-355 -295 0
-356 -296 0
-357 -297 0
-415 -298 0
-416 -299 0
-417 -300 0
-403 -301 0
-404 -302 0
-405 -303 0
-442 -301 0
-443 -302 0
-444 -303 0
-319 -304 0
-320 -305 0
-321 -306 0
-430 -304 0
-431 -305 0
-432 -306 0
-343 -307 0
-344 -308 0
-345 -309 0
-409 -307 0
-410 -308 0
-411 -309 0
-433 -310 0
-434 -311 0
-435 -312 0
-439 -310 0
-440 -311 0
-441 -312 0
-367 -316 0
-368 -317 0
-369 -318 0
-415 -316 0
-416 -317 0
-417 -318 0
-355 -319 0
-356 -320 0
-357 -321 0
-364 -319 0
-365 -320 0
-366 -321 0
-400 -319 0
-401 -320 0
-402 -321 0
-412 -319 0
-413 -320 0
-414 -321 0
-331 -322 0
-332 -323 0
-333 -324 0
-388 -322 0
-389 -323 0
-390 -324 0
-367 -325 0
-368 -326 0
-369 -327 0
-433 -325 0
-434 -326 0
-435 -327 0
-379 -328 0
-380 -329 0
-381 -330 0
-355 -331 0
-356 -332 0
-357 -333 0
-406 -331 0
-407 -332 0
-408 -333 0
-412 -337 0
-413 -338 0
-414 -339 0
-439 -358 0
-440 -359 0
-441 -360 0
-433 -364 0
-434 -365 0
-435 -366 0
-424 -379 0
-425 -380 0
-426 -381 0
-427 -385 0
-428 -386 0
-429 -387 0
-424 -397 0
-425 -398 0
-426 -399 0
-427 -397 0
-428 -398 0
-429 -399 0
-436 -400 0
-437 -401 0
-438 -402 0
-418 -415 0
-419 -416 0
-420 -417 0
